(set-logic QF_LIA)
(set-info :ran/ran2.smt2)
(set-info :smt-lib-version 2.0)
(declare-fun x1 () Int)
(declare-fun x2 () Int)
(declare-fun x3 () Int)
(declare-fun x4 () Int)
(assert (<= (+ (* (- 5) x1) (* (- 10) x2) (* (- 2) x3) (* (- 9) x4) ) (- 1)))
(assert (<= (+ (* 5 x1) (* 0 x2) (* 0 x3) (* (- 8) x4) ) 14))
(assert (<= (+ (* 9 x1) (* (- 8) x2) (* 7 x3) (* 8 x4) ) (- 19)))
(assert (<= (+ (* (- 3) x1) (* 4 x2) (* 6 x3) (* (- 8) x4) ) 9))
(assert (<= (+ (* (- 8) x1) (* 2 x2) (* 0 x3) (* (- 9) x4) ) 8))
(assert (<= (+ (* 1 x1) (* (- 9) x2) (* (- 8) x3) (* 1 x4) ) 22))
(assert (<= (+ (* (- 5) x1) (* 7 x2) (* 0 x3) (* 3 x4) ) 3))
(assert (<= (+ (* 5 x1) (* (- 2) x2) (* (- 4) x3) (* (- 8) x4) ) 12))
(assert (<= (+ (* 1 x1) (* 0 x2) (* 0 x3) (* 0 x4) ) 22))
(assert (<= (+ (* (- 1) x1) (* 0 x2) (* 0 x3) (* 0 x4) ) 22))
(assert (<= (+ (* 0 x1) (* 1 x2) (* 0 x3) (* 0 x4) ) 22))
(assert (<= (+ (* 0 x1) (* (- 1) x2) (* 0 x3) (* 0 x4) ) 22))
(assert (<= (+ (* 0 x1) (* 0 x2) (* 1 x3) (* 0 x4) ) 22))
(assert (<= (+ (* 0 x1) (* 0 x2) (* (- 1) x3) (* 0 x4) ) 22))
(assert (<= (+ (* 0 x1) (* 0 x2) (* 0 x3) (* 1 x4) ) 22))
(assert (<= (+ (* 0 x1) (* 0 x2) (* 0 x3) (* (- 1) x4) ) 22))
